benchmarks_CP/INST_64x64/40/inst64x64_40_83.dzn
S=8;
start=[|
64,	-1,	61,	17,	-1,	7,	-1,	33,	-1,	-1,	47,	-1,	-1,	1,	-1,	-1,	35,	15,	-1,	37,	-1,	-1,	-1,	-1,	-1,	-1,	63,	25,	-1,	40,	20,	-1,	5,	-1,	-1,	8,	13,	45,	21,	6,	-1,	-1,	39,	-1,	2,	23,	22,	59,	46,	-1,	-1,	-1,	-1,	-1,	16,	-1,	-1,	-1,	-1,	60,	9,	44,	-1,	-1|
32,	-1,	-1,	-1,	60,	-1,	6,	-1,	54,	36,	-1,	-1,	-1,	-1,	-1,	40,	-1,	8,	-1,	-1,	-1,	-1,	-1,	33,	12,	-1,	-1,	-1,	-1,	56,	-1,	34,	29,	-1,	-1,	25,	4,	17,	35,	-1,	-1,	18,	-1,	48,	14,	-1,	-1,	-1,	-1,	-1,	11,	19,	45,	-1,	-1,	57,	-1,	63,	10,	-1,	-1,	27,	-1,	43|
-1,	54,	-1,	49,	-1,	37,	-1,	-1,	35,	-1,	10,	-1,	-1,	-1,	-1,	-1,	-1,	-1,	-1,	23,	-1,	-1,	40,	-1,	-1,	21,	-1,	-1,	13,	-1,	44,	4,	47,	-1,	60,	-1,	51,	36,	59,	11,	-1,	17,	19,	41,	15,	25,	45,	38,	33,	-1,	6,	9,	-1,	-1,	-1,	63,	-1,	-1,	-1,	-1,	-1,	-1,	53,	-1|
38,	-1,	-1,	8,	-1,	-1,	-1,	-1,	3,	19,	7,	-1,	-1,	21,	-1,	-1,	-1,	-1,	-1,	17,	-1,	-1,	-1,	18,	-1,	-1,	39,	-1,	37,	33,	57,	6,	23,	-1,	1,	-1,	24,	9,	-1,	-1,	28,	-1,	-1,	-1,	-1,	-1,	-1,	11,	-1,	-1,	62,	-1,	-1,	-1,	-1,	4,	-1,	-1,	-1,	22,	-1,	61,	-1,	-1|
-1,	-1,	-1,	-1,	-1,	63,	-1,	1,	25,	-1,	41,	33,	-1,	-1,	-1,	22,	45,	-1,	-1,	13,	58,	-1,	-1,	21,	-1,	54,	7,	-1,	-1,	-1,	36,	59,	-1,	15,	-1,	34,	-1,	-1,	-1,	-1,	-1,	-1,	-1,	-1,	8,	-1,	-1,	42,	17,	-1,	-1,	-1,	55,	2,	61,	12,	-1,	16,	-1,	-1,	-1,	35,	19,	-1|
21,	-1,	59,	-1,	16,	-1,	4,	-1,	-1,	13,	-1,	-1,	18,	-1,	-1,	-1,	-1,	57,	-1,	50,	-1,	-1,	-1,	-1,	35,	43,	-1,	-1,	58,	-1,	31,	-1,	-1,	-1,	62,	-1,	64,	-1,	-1,	46,	-1,	-1,	-1,	-1,	-1,	-1,	26,	-1,	56,	-1,	24,	41,	23,	-1,	44,	-1,	25,	-1,	-1,	15,	-1,	-1,	-1,	33|
50,	53,	2,	-1,	-1,	-1,	18,	35,	61,	63,	-1,	-1,	-1,	-1,	37,	-1,	26,	-1,	-1,	-1,	48,	-1,	59,	55,	-1,	-1,	-1,	-1,	-1,	46,	27,	47,	-1,	-1,	-1,	42,	3,	-1,	43,	-1,	-1,	34,	-1,	31,	-1,	24,	-1,	-1,	-1,	25,	-1,	51,	8,	-1,	-1,	38,	-1,	57,	-1,	40,	32,	-1,	-1,	54|
-1,	-1,	-1,	-1,	-1,	11,	-1,	34,	-1,	-1,	20,	-1,	-1,	-1,	-1,	23,	54,	29,	27,	47,	-1,	61,	-1,	22,	-1,	-1,	28,	-1,	-1,	-1,	-1,	-1,	38,	-1,	-1,	-1,	-1,	63,	41,	31,	-1,	-1,	-1,	-1,	-1,	-1,	-1,	37,	42,	10,	-1,	59,	-1,	64,	30,	49,	-1,	2,	6,	-1,	-1,	13,	-1,	-1|
-1,	-1,	55,	-1,	-1,	23,	-1,	18,	-1,	-1,	63,	-1,	-1,	-1,	-1,	12,	4,	33,	-1,	25,	-1,	-1,	-1,	48,	-1,	34,	-1,	-1,	44,	-1,	53,	-1,	-1,	26,	-1,	16,	-1,	-1,	28,	36,	-1,	59,	-1,	22,	-1,	-1,	39,	46,	64,	19,	-1,	24,	51,	60,	-1,	7,	3,	-1,	-1,	-1,	35,	42,	-1,	17|
-1,	-1,	-1,	5,	-1,	-1,	43,	-1,	-1,	-1,	45,	-1,	-1,	-1,	-1,	52,	-1,	1,	61,	-1,	-1,	-1,	-1,	32,	9,	-1,	40,	-1,	10,	62,	-1,	-1,	-1,	-1,	-1,	50,	-1,	-1,	-1,	-1,	48,	-1,	-1,	38,	-1,	27,	-1,	4,	-1,	44,	-1,	63,	20,	-1,	36,	-1,	-1,	-1,	22,	-1,	19,	16,	-1,	37|
-1,	-1,	-1,	-1,	-1,	-1,	-1,	-1,	7,	-1,	-1,	53,	62,	-1,	-1,	-1,	47,	-1,	64,	43,	-1,	-1,	-1,	-1,	26,	14,	5,	18,	-1,	42,	-1,	35,	21,	-1,	-1,	-1,	-1,	-1,	-1,	30,	15,	45,	34,	25,	1,	56,	-1,	8,	27,	4,	13,	-1,	38,	-1,	-1,	-1,	-1,	-1,	-1,	29,	-1,	40,	20,	-1|
26,	-1,	-1,	60,	-1,	-1,	-1,	52,	-1,	56,	-1,	-1,	-1,	-1,	33,	25,	-1,	-1,	-1,	-1,	30,	-1,	18,	28,	27,	-1,	37,	-1,	-1,	-1,	-1,	48,	8,	-1,	-1,	-1,	-1,	-1,	23,	17,	-1,	-1,	-1,	12,	-1,	-1,	-1,	-1,	-1,	-1,	-1,	-1,	-1,	-1,	-1,	-1,	34,	43,	-1,	-1,	24,	-1,	-1,	-1|
-1,	32,	-1,	-1,	-1,	-1,	-1,	62,	-1,	55,	38,	-1,	-1,	-1,	57,	-1,	5,	23,	34,	-1,	-1,	-1,	-1,	-1,	-1,	-1,	45,	-1,	-1,	-1,	11,	-1,	-1,	-1,	6,	59,	-1,	-1,	-1,	-1,	54,	-1,	-1,	-1,	-1,	52,	37,	33,	50,	-1,	-1,	30,	42,	-1,	2,	58,	-1,	-1,	53,	-1,	-1,	46,	-1,	8|
58,	-1,	-1,	-1,	20,	-1,	-1,	16,	27,	23,	61,	-1,	-1,	-1,	14,	8,	-1,	-1,	59,	-1,	62,	7,	-1,	-1,	-1,	-1,	-1,	12,	-1,	-1,	24,	-1,	-1,	-1,	-1,	-1,	33,	-1,	-1,	18,	17,	49,	43,	-1,	-1,	-1,	-1,	-1,	25,	48,	31,	11,	-1,	56,	40,	15,	41,	64,	-1,	30,	-1,	-1,	-1,	55|
-1,	-1,	-1,	-1,	3,	-1,	35,	-1,	16,	30,	-1,	-1,	-1,	29,	-1,	2,	-1,	-1,	12,	6,	-1,	-1,	-1,	-1,	-1,	-1,	-1,	22,	-1,	25,	-1,	51,	-1,	-1,	56,	40,	-1,	-1,	-1,	-1,	58,	-1,	-1,	42,	55,	-1,	21,	-1,	-1,	-1,	49,	-1,	-1,	14,	-1,	-1,	38,	13,	36,	-1,	50,	59,	-1,	45|
-1,	45,	8,	-1,	25,	-1,	-1,	27,	64,	-1,	-1,	-1,	-1,	-1,	-1,	-1,	-1,	-1,	56,	40,	-1,	24,	-1,	36,	-1,	-1,	-1,	7,	-1,	38,	-1,	-1,	22,	-1,	-1,	-1,	-1,	-1,	-1,	-1,	-1,	35,	-1,	-1,	-1,	-1,	-1,	57,	-1,	33,	-1,	-1,	-1,	-1,	-1,	-1,	-1,	-1,	-1,	51,	-1,	-1,	9,	-1|
60,	-1,	16,	-1,	15,	51,	-1,	-1,	-1,	-1,	43,	52,	4,	-1,	62,	9,	61,	25,	-1,	-1,	41,	45,	46,	-1,	-1,	64,	54,	-1,	12,	-1,	59,	36,	-1,	18,	2,	-1,	57,	-1,	49,	-1,	56,	-1,	6,	-1,	11,	-1,	31,	34,	-1,	55,	-1,	23,	-1,	-1,	-1,	1,	-1,	-1,	-1,	44,	42,	7,	22,	-1|
-1,	-1,	30,	-1,	-1,	40,	-1,	-1,	59,	-1,	14,	-1,	-1,	25,	-1,	-1,	12,	-1,	32,	29,	-1,	-1,	-1,	60,	-1,	42,	16,	-1,	-1,	-1,	45,	-1,	53,	-1,	-1,	-1,	-1,	-1,	-1,	-1,	-1,	20,	23,	27,	-1,	-1,	62,	-1,	10,	56,	-1,	52,	37,	-1,	47,	-1,	-1,	-1,	-1,	61,	5,	1,	-1,	51|
54,	-1,	-1,	-1,	-1,	-1,	2,	-1,	17,	-1,	30,	64,	24,	23,	-1,	20,	-1,	10,	38,	34,	31,	28,	62,	43,	15,	-1,	33,	56,	4,	-1,	13,	21,	55,	-1,	-1,	-1,	-1,	25,	45,	5,	-1,	-1,	41,	-1,	-1,	-1,	-1,	-1,	-1,	-1,	-1,	-1,	-1,	27,	-1,	-1,	6,	-1,	-1,	-1,	39,	-1,	-1,	-1|
52,	-1,	-1,	-1,	-1,	17,	64,	6,	12,	-1,	-1,	-1,	19,	56,	63,	-1,	-1,	36,	-1,	4,	-1,	-1,	2,	20,	-1,	-1,	38,	1,	32,	-1,	-1,	-1,	-1,	-1,	-1,	-1,	-1,	50,	-1,	62,	53,	-1,	30,	43,	-1,	-1,	-1,	-1,	-1,	-1,	33,	15,	-1,	-1,	45,	-1,	-1,	-1,	-1,	37,	-1,	-1,	-1,	9|
23,	-1,	-1,	-1,	1,	33,	41,	25,	-1,	-1,	31,	47,	5,	-1,	48,	-1,	-1,	-1,	42,	11,	53,	-1,	-1,	64,	-1,	-1,	-1,	60,	20,	-1,	-1,	-1,	-1,	61,	-1,	-1,	-1,	59,	-1,	-1,	13,	-1,	55,	24,	-1,	4,	-1,	36,	-1,	-1,	-1,	44,	-1,	6,	50,	-1,	-1,	-1,	-1,	-1,	-1,	-1,	-1,	-1|
31,	5,	19,	-1,	-1,	-1,	59,	-1,	32,	-1,	-1,	-1,	-1,	-1,	-1,	38,	63,	30,	-1,	-1,	-1,	35,	27,	-1,	-1,	6,	44,	-1,	49,	34,	-1,	37,	7,	39,	-1,	22,	-1,	46,	-1,	23,	-1,	9,	-1,	-1,	-1,	12,	28,	-1,	24,	62,	-1,	57,	-1,	-1,	-1,	61,	-1,	-1,	-1,	3,	-1,	-1,	29,	25|
-1,	-1,	-1,	-1,	61,	34,	-1,	-1,	41,	-1,	-1,	13,	-1,	-1,	-1,	-1,	6,	17,	-1,	57,	49,	22,	24,	-1,	-1,	-1,	-1,	-1,	53,	-1,	-1,	-1,	-1,	-1,	-1,	51,	-1,	52,	-1,	-1,	7,	19,	21,	-1,	-1,	-1,	-1,	25,	59,	-1,	39,	-1,	-1,	35,	18,	-1,	-1,	-1,	64,	-1,	-1,	-1,	-1,	-1|
-1,	-1,	-1,	-1,	-1,	38,	10,	-1,	57,	-1,	-1,	26,	-1,	7,	-1,	55,	-1,	-1,	-1,	-1,	21,	18,	3,	-1,	-1,	48,	41,	-1,	-1,	24,	40,	25,	6,	-1,	-1,	-1,	37,	-1,	31,	8,	-1,	-1,	-1,	-1,	29,	-1,	47,	-1,	-1,	36,	60,	53,	22,	-1,	-1,	13,	-1,	-1,	-1,	-1,	-1,	12,	43,	35|
-1,	-1,	-1,	12,	-1,	-1,	-1,	-1,	45,	-1,	-1,	-1,	-1,	44,	-1,	-1,	30,	3,	-1,	59,	-1,	-1,	-1,	5,	-1,	-1,	-1,	41,	-1,	-1,	-1,	58,	-1,	-1,	16,	-1,	-1,	60,	37,	-1,	-1,	-1,	-1,	57,	-1,	-1,	10,	-1,	-1,	-1,	50,	-1,	-1,	-1,	8,	-1,	-1,	-1,	-1,	-1,	61,	-1,	-1,	40|
-1,	19,	15,	-1,	62,	1,	23,	-1,	48,	-1,	11,	-1,	-1,	-1,	-1,	-1,	-1,	-1,	41,	53,	-1,	-1,	6,	-1,	32,	-1,	-1,	-1,	-1,	-1,	43,	14,	-1,	52,	20,	17,	-1,	8,	2,	-1,	-1,	-1,	-1,	47,	9,	-1,	3,	29,	-1,	-1,	5,	33,	-1,	31,	4,	-1,	-1,	-1,	-1,	28,	-1,	56,	30,	-1|
-1,	-1,	-1,	-1,	-1,	-1,	-1,	38,	-1,	-1,	6,	-1,	-1,	2,	51,	43,	-1,	20,	-1,	-1,	-1,	57,	-1,	-1,	-1,	-1,	12,	-1,	-1,	49,	-1,	39,	-1,	21,	50,	58,	45,	30,	-1,	28,	8,	-1,	33,	37,	53,	35,	55,	-1,	-1,	-1,	19,	-1,	-1,	54,	-1,	14,	-1,	-1,	-1,	-1,	-1,	36,	44,	60|
-1,	-1,	-1,	-1,	-1,	58,	-1,	-1,	23,	8,	40,	-1,	-1,	-1,	4,	-1,	9,	-1,	51,	-1,	-1,	37,	-1,	16,	-1,	28,	36,	63,	-1,	55,	6,	-1,	-1,	-1,	-1,	-1,	-1,	-1,	-1,	48,	44,	-1,	62,	-1,	-1,	50,	-1,	49,	60,	-1,	-1,	-1,	7,	-1,	15,	-1,	13,	-1,	11,	-1,	-1,	-1,	25,	-1|
-1,	60,	-1,	-1,	-1,	44,	-1,	2,	5,	-1,	15,	-1,	32,	-1,	59,	1,	-1,	4,	-1,	-1,	-1,	-1,	8,	-1,	-1,	47,	-1,	31,	-1,	-1,	9,	-1,	49,	-1,	51,	-1,	-1,	40,	62,	-1,	-1,	6,	58,	-1,	-1,	14,	25,	-1,	29,	-1,	28,	-1,	-1,	-1,	13,	-1,	-1,	-1,	-1,	-1,	46,	34,	-1,	19|
-1,	27,	50,	41,	59,	20,	-1,	61,	-1,	-1,	-1,	54,	10,	63,	-1,	-1,	-1,	-1,	28,	42,	-1,	-1,	48,	38,	24,	-1,	53,	37,	17,	-1,	-1,	-1,	-1,	7,	-1,	-1,	-1,	-1,	-1,	44,	-1,	26,	56,	21,	-1,	-1,	-1,	15,	3,	22,	51,	-1,	-1,	-1,	23,	36,	-1,	-1,	18,	8,	-1,	14,	16,	-1|
-1,	-1,	57,	28,	26,	-1,	8,	39,	-1,	-1,	-1,	27,	60,	-1,	-1,	-1,	-1,	-1,	-1,	55,	2,	12,	-1,	-1,	16,	-1,	-1,	-1,	-1,	-1,	-1,	15,	-1,	-1,	-1,	56,	-1,	-1,	-1,	59,	-1,	-1,	45,	34,	-1,	-1,	-1,	-1,	-1,	-1,	-1,	38,	-1,	-1,	63,	43,	53,	-1,	-1,	1,	-1,	48,	-1,	6|
-1,	11,	-1,	-1,	-1,	-1,	34,	36,	-1,	-1,	-1,	-1,	-1,	-1,	61,	64,	-1,	32,	-1,	-1,	-1,	-1,	-1,	-1,	-1,	-1,	-1,	26,	-1,	-1,	8,	13,	9,	-1,	-1,	18,	-1,	-1,	-1,	-1,	-1,	2,	-1,	-1,	-1,	-1,	23,	-1,	35,	-1,	45,	37,	-1,	-1,	-1,	-1,	-1,	39,	54,	4,	3,	-1,	-1,	-1|
25,	-1,	-1,	-1,	-1,	12,	46,	10,	26,	16,	-1,	23,	-1,	13,	-1,	-1,	3,	-1,	6,	-1,	-1,	36,	5,	-1,	-1,	58,	22,	34,	-1,	-1,	-1,	-1,	17,	-1,	29,	-1,	41,	35,	-1,	-1,	-1,	-1,	7,	9,	-1,	54,	-1,	-1,	-1,	8,	-1,	-1,	-1,	-1,	-1,	60,	59,	-1,	30,	-1,	-1,	24,	-1,	1|
59,	49,	-1,	-1,	14,	-1,	55,	-1,	-1,	17,	-1,	-1,	-1,	64,	28,	3,	-1,	-1,	46,	-1,	-1,	43,	33,	-1,	-1,	-1,	-1,	11,	-1,	-1,	-1,	27,	-1,	37,	-1,	12,	22,	4,	-1,	51,	-1,	-1,	-1,	-1,	-1,	-1,	-1,	-1,	-1,	-1,	38,	29,	39,	10,	48,	44,	-1,	54,	57,	-1,	16,	9,	-1,	-1|
-1,	-1,	23,	-1,	-1,	60,	29,	26,	-1,	61,	58,	-1,	9,	-1,	54,	-1,	-1,	27,	-1,	-1,	-1,	47,	-1,	25,	-1,	-1,	-1,	28,	7,	-1,	21,	44,	-1,	-1,	-1,	-1,	-1,	10,	18,	-1,	-1,	-1,	3,	-1,	63,	45,	35,	-1,	22,	-1,	12,	-1,	-1,	-1,	56,	-1,	-1,	6,	43,	48,	31,	-1,	40,	-1|
-1,	17,	36,	52,	2,	-1,	-1,	53,	-1,	-1,	-1,	-1,	7,	46,	-1,	50,	-1,	-1,	-1,	20,	14,	-1,	-1,	-1,	-1,	-1,	-1,	33,	-1,	-1,	5,	-1,	28,	-1,	-1,	-1,	-1,	-1,	56,	-1,	24,	-1,	37,	55,	-1,	34,	-1,	-1,	-1,	45,	-1,	4,	-1,	49,	-1,	-1,	32,	18,	15,	41,	62,	-1,	-1,	-1|
-1,	31,	-1,	-1,	64,	8,	-1,	-1,	43,	-1,	-1,	37,	-1,	-1,	40,	-1,	-1,	-1,	-1,	9,	24,	-1,	-1,	2,	42,	-1,	6,	48,	25,	-1,	-1,	-1,	62,	11,	-1,	30,	5,	-1,	-1,	26,	27,	-1,	-1,	29,	-1,	-1,	-1,	-1,	54,	21,	-1,	-1,	-1,	-1,	-1,	-1,	-1,	46,	56,	-1,	33,	55,	-1,	58|
4,	16,	-1,	-1,	13,	-1,	27,	30,	6,	-1,	-1,	-1,	-1,	-1,	11,	15,	-1,	-1,	-1,	-1,	-1,	-1,	56,	34,	14,	57,	3,	46,	-1,	12,	-1,	10,	36,	-1,	-1,	43,	39,	-1,	54,	-1,	-1,	38,	-1,	8,	-1,	-1,	-1,	-1,	-1,	-1,	-1,	-1,	-1,	-1,	52,	64,	-1,	22,	-1,	-1,	29,	-1,	-1,	-1|
-1,	-1,	-1,	-1,	51,	-1,	-1,	-1,	4,	59,	-1,	-1,	-1,	-1,	21,	-1,	10,	62,	-1,	30,	44,	13,	-1,	-1,	-1,	35,	56,	-1,	15,	-1,	-1,	-1,	31,	-1,	-1,	-1,	53,	49,	7,	-1,	-1,	-1,	64,	-1,	-1,	5,	14,	-1,	-1,	18,	-1,	-1,	9,	-1,	-1,	-1,	-1,	-1,	60,	-1,	26,	-1,	-1,	-1|
-1,	-1,	35,	-1,	-1,	-1,	7,	-1,	2,	-1,	-1,	-1,	34,	-1,	-1,	56,	-1,	-1,	-1,	-1,	-1,	-1,	-1,	-1,	23,	-1,	4,	54,	-1,	-1,	-1,	62,	14,	-1,	59,	-1,	-1,	44,	-1,	63,	-1,	31,	-1,	16,	-1,	-1,	-1,	-1,	-1,	-1,	40,	-1,	-1,	46,	-1,	-1,	-1,	-1,	-1,	25,	64,	21,	-1,	38|
20,	-1,	-1,	-1,	-1,	-1,	40,	-1,	-1,	-1,	-1,	38,	61,	62,	-1,	-1,	-1,	-1,	63,	21,	46,	55,	-1,	-1,	-1,	-1,	-1,	-1,	2,	-1,	12,	-1,	-1,	-1,	49,	26,	27,	3,	50,	-1,	31,	56,	32,	-1,	58,	-1,	-1,	18,	-1,	-1,	-1,	-1,	-1,	-1,	5,	-1,	35,	44,	-1,	-1,	25,	-1,	-1,	-1|
-1,	-1,	42,	-1,	-1,	39,	-1,	-1,	18,	-1,	-1,	-1,	43,	47,	-1,	-1,	52,	-1,	-1,	-1,	-1,	-1,	-1,	-1,	-1,	29,	-1,	-1,	6,	-1,	-1,	-1,	-1,	32,	-1,	1,	8,	33,	24,	-1,	64,	12,	-1,	-1,	-1,	11,	59,	7,	-1,	38,	-1,	-1,	-1,	-1,	-1,	-1,	27,	-1,	16,	-1,	51,	-1,	-1,	-1|
-1,	-1,	7,	-1,	18,	21,	-1,	-1,	-1,	41,	46,	5,	-1,	-1,	-1,	32,	-1,	-1,	-1,	-1,	33,	-1,	10,	-1,	-1,	-1,	30,	-1,	-1,	-1,	-1,	-1,	-1,	35,	-1,	60,	6,	-1,	-1,	42,	63,	14,	-1,	-1,	50,	-1,	-1,	-1,	-1,	13,	3,	27,	64,	-1,	24,	25,	45,	4,	-1,	-1,	-1,	-1,	23,	47|
-1,	47,	51,	30,	-1,	24,	-1,	-1,	-1,	-1,	-1,	-1,	26,	-1,	-1,	-1,	-1,	-1,	-1,	-1,	-1,	-1,	38,	-1,	22,	-1,	-1,	50,	-1,	-1,	-1,	-1,	20,	54,	-1,	41,	-1,	-1,	-1,	57,	-1,	28,	-1,	40,	-1,	21,	52,	53,	-1,	-1,	-1,	46,	33,	-1,	-1,	-1,	43,	12,	19,	-1,	-1,	58,	36,	56|
-1,	61,	14,	-1,	50,	-1,	52,	-1,	-1,	-1,	49,	-1,	-1,	-1,	56,	45,	-1,	-1,	-1,	26,	-1,	-1,	4,	-1,	-1,	-1,	-1,	-1,	-1,	47,	-1,	-1,	-1,	-1,	17,	36,	-1,	-1,	-1,	43,	-1,	-1,	44,	-1,	-1,	20,	48,	-1,	2,	-1,	-1,	1,	-1,	16,	22,	-1,	-1,	-1,	46,	-1,	-1,	64,	-1,	-1|
-1,	-1,	-1,	29,	28,	54,	-1,	-1,	-1,	-1,	25,	9,	-1,	-1,	19,	-1,	57,	14,	-1,	-1,	18,	-1,	-1,	-1,	-1,	16,	51,	-1,	-1,	-1,	46,	-1,	-1,	45,	-1,	-1,	-1,	-1,	-1,	-1,	-1,	-1,	22,	33,	13,	-1,	-1,	-1,	62,	50,	-1,	-1,	-1,	61,	-1,	52,	-1,	-1,	-1,	-1,	30,	-1,	8,	-1|
-1,	33,	25,	-1,	8,	-1,	-1,	-1,	-1,	-1,	-1,	-1,	13,	16,	-1,	-1,	62,	-1,	60,	-1,	-1,	39,	22,	-1,	45,	-1,	-1,	14,	-1,	-1,	-1,	11,	-1,	-1,	-1,	28,	21,	-1,	-1,	-1,	-1,	5,	-1,	-1,	49,	46,	-1,	-1,	43,	-1,	-1,	-1,	-1,	18,	-1,	37,	48,	-1,	1,	-1,	-1,	-1,	-1,	34|
-1,	-1,	-1,	-1,	-1,	-1,	11,	-1,	-1,	-1,	59,	6,	23,	-1,	31,	-1,	-1,	-1,	53,	28,	-1,	-1,	-1,	-1,	-1,	49,	-1,	-1,	-1,	10,	-1,	-1,	37,	58,	-1,	61,	-1,	-1,	47,	-1,	-1,	-1,	-1,	-1,	-1,	-1,	38,	43,	-1,	-1,	-1,	45,	-1,	-1,	-1,	-1,	-1,	3,	-1,	-1,	52,	57,	-1,	-1|
39,	7,	37,	51,	-1,	55,	-1,	-1,	-1,	-1,	16,	48,	64,	-1,	-1,	-1,	-1,	-1,	57,	36,	29,	-1,	-1,	-1,	-1,	-1,	-1,	-1,	-1,	21,	56,	-1,	59,	10,	58,	-1,	-1,	-1,	-1,	-1,	-1,	-1,	12,	-1,	19,	-1,	44,	-1,	-1,	15,	26,	-1,	50,	-1,	38,	-1,	-1,	-1,	2,	27,	-1,	-1,	-1,	-1|
-1,	1,	-1,	-1,	-1,	26,	-1,	3,	29,	53,	24,	-1,	-1,	-1,	-1,	-1,	18,	11,	47,	-1,	38,	-1,	13,	44,	-1,	4,	-1,	-1,	40,	23,	37,	-1,	-1,	-1,	-1,	-1,	-1,	-1,	8,	-1,	52,	-1,	20,	-1,	-1,	6,	2,	-1,	-1,	-1,	-1,	-1,	-1,	-1,	-1,	51,	-1,	33,	-1,	-1,	-1,	-1,	55,	-1|
13,	8,	-1,	19,	-1,	-1,	-1,	-1,	10,	-1,	60,	11,	-1,	51,	-1,	-1,	64,	-1,	-1,	1,	-1,	50,	25,	-1,	20,	53,	27,	-1,	-1,	16,	15,	-1,	-1,	-1,	43,	-1,	-1,	-1,	-1,	33,	-1,	-1,	24,	-1,	4,	18,	34,	-1,	-1,	2,	-1,	28,	41,	9,	58,	-1,	36,	-1,	44,	-1,	21,	32,	49,	3|
46,	-1,	-1,	59,	-1,	25,	53,	40,	34,	1,	18,	35,	-1,	32,	23,	-1,	19,	-1,	-1,	-1,	60,	27,	41,	-1,	-1,	-1,	8,	-1,	-1,	58,	29,	-1,	-1,	-1,	-1,	37,	-1,	24,	6,	-1,	-1,	21,	9,	26,	10,	30,	36,	-1,	-1,	-1,	-1,	43,	-1,	-1,	-1,	-1,	61,	-1,	-1,	-1,	-1,	-1,	39,	-1|
-1,	-1,	24,	10,	45,	-1,	-1,	-1,	-1,	-1,	-1,	-1,	30,	6,	-1,	27,	17,	-1,	-1,	-1,	-1,	26,	-1,	37,	-1,	1,	55,	43,	-1,	28,	-1,	-1,	41,	-1,	-1,	3,	-1,	-1,	11,	49,	60,	54,	57,	56,	42,	-1,	32,	-1,	61,	-1,	-1,	8,	-1,	29,	33,	-1,	46,	-1,	25,	7,	-1,	-1,	-1,	64|
-1,	29,	5,	-1,	-1,	-1,	17,	-1,	-1,	4,	-1,	50,	-1,	-1,	-1,	46,	-1,	-1,	-1,	-1,	-1,	42,	-1,	35,	-1,	-1,	-1,	39,	-1,	-1,	34,	-1,	51,	-1,	-1,	-1,	36,	22,	-1,	27,	-1,	53,	-1,	-1,	-1,	3,	-1,	-1,	-1,	-1,	30,	16,	-1,	-1,	-1,	10,	-1,	-1,	-1,	-1,	54,	60,	57,	-1|
-1,	-1,	-1,	16,	35,	-1,	-1,	56,	58,	52,	-1,	19,	-1,	37,	-1,	-1,	22,	53,	-1,	-1,	-1,	-1,	-1,	59,	-1,	-1,	-1,	6,	-1,	41,	42,	32,	-1,	-1,	48,	13,	-1,	39,	-1,	-1,	55,	-1,	-1,	51,	38,	-1,	7,	-1,	23,	-1,	25,	49,	54,	-1,	-1,	47,	-1,	-1,	-1,	-1,	43,	-1,	5,	-1|
-1,	-1,	4,	-1,	-1,	27,	-1,	-1,	15,	45,	-1,	-1,	39,	-1,	-1,	-1,	-1,	51,	-1,	-1,	-1,	33,	-1,	61,	-1,	-1,	-1,	-1,	38,	-1,	10,	12,	-1,	25,	-1,	23,	-1,	53,	44,	-1,	37,	-1,	-1,	13,	-1,	-1,	29,	-1,	14,	-1,	-1,	-1,	-1,	-1,	34,	18,	50,	1,	-1,	19,	-1,	28,	24,	-1|
-1,	30,	31,	61,	-1,	2,	-1,	-1,	19,	10,	35,	-1,	-1,	-1,	-1,	49,	13,	-1,	-1,	32,	34,	-1,	14,	50,	53,	41,	-1,	58,	24,	-1,	-1,	55,	-1,	28,	-1,	15,	-1,	20,	-1,	-1,	25,	47,	38,	-1,	33,	-1,	64,	45,	-1,	-1,	-1,	-1,	-1,	-1,	57,	-1,	-1,	-1,	-1,	-1,	-1,	43,	-1,	36|
62,	-1,	26,	-1,	29,	18,	-1,	50,	44,	-1,	64,	59,	-1,	24,	-1,	-1,	-1,	22,	-1,	63,	9,	-1,	-1,	-1,	-1,	12,	46,	-1,	-1,	-1,	52,	-1,	-1,	-1,	-1,	-1,	-1,	-1,	-1,	37,	-1,	-1,	-1,	-1,	23,	31,	-1,	41,	4,	-1,	27,	54,	-1,	-1,	-1,	-1,	-1,	-1,	55,	-1,	17,	-1,	-1,	39|
-1,	-1,	38,	-1,	10,	-1,	60,	-1,	37,	-1,	-1,	14,	-1,	-1,	9,	-1,	-1,	-1,	-1,	58,	-1,	59,	-1,	-1,	-1,	45,	-1,	-1,	35,	6,	-1,	2,	-1,	57,	22,	-1,	-1,	62,	-1,	7,	42,	-1,	-1,	-1,	-1,	-1,	-1,	-1,	32,	53,	18,	61,	17,	-1,	49,	34,	54,	-1,	-1,	-1,	-1,	-1,	-1,	-1|
-1,	44,	43,	23,	-1,	35,	-1,	54,	-1,	-1,	-1,	-1,	-1,	-1,	-1,	57,	-1,	-1,	-1,	24,	-1,	25,	-1,	6,	49,	-1,	-1,	-1,	-1,	-1,	-1,	-1,	45,	8,	53,	-1,	-1,	-1,	39,	-1,	-1,	-1,	-1,	-1,	59,	-1,	58,	-1,	-1,	-1,	-1,	26,	-1,	1,	-1,	-1,	-1,	30,	-1,	-1,	7,	-1,	-1,	-1|
-1,	63,	-1,	-1,	53,	45,	-1,	-1,	62,	-1,	23,	61,	-1,	20,	29,	31,	-1,	-1,	30,	52,	-1,	-1,	-1,	-1,	-1,	26,	-1,	19,	42,	-1,	-1,	18,	44,	-1,	-1,	-1,	-1,	-1,	-1,	-1,	-1,	55,	-1,	-1,	-1,	-1,	15,	-1,	-1,	-1,	-1,	5,	-1,	-1,	64,	-1,	-1,	-1,	41,	6,	-1,	-1,	34,	-1|
1,	-1,	-1,	-1,	-1,	64,	57,	-1,	52,	-1,	26,	-1,	42,	40,	45,	-1,	-1,	47,	-1,	62,	37,	-1,	-1,	-1,	34,	-1,	11,	27,	63,	-1,	-1,	56,	-1,	-1,	-1,	-1,	31,	-1,	17,	-1,	-1,	-1,	28,	-1,	21,	-1,	18,	-1,	-1,	3,	-1,	-1,	36,	-1,	-1,	55,	-1,	53,	-1,	-1,	60,	19,	-1,	-1|
-1,	-1,	49,	-1,	27,	-1,	-1,	-1,	-1,	-1,	-1,	46,	-1,	-1,	43,	-1,	21,	-1,	-1,	-1,	16,	-1,	-1,	41,	28,	44,	-1,	-1,	-1,	37,	25,	23,	-1,	9,	-1,	47,	26,	6,	-1,	61,	-1,	-1,	-1,	-1,	-1,	48,	54,	5,	38,	-1,	-1,	39,	-1,	-1,	-1,	-1,	1,	-1,	-1,	-1,	-1,	-1,	-1,	-1|
-1,	58,	-1,	-1,	-1,	-1,	5,	41,	30,	6,	-1,	-1,	-1,	-1,	-1,	-1,	23,	18,	-1,	-1,	27,	-1,	55,	-1,	-1,	59,	-1,	16,	-1,	-1,	61,	-1,	-1,	1,	-1,	-1,	-1,	-1,	-1,	-1,	-1,	-1,	26,	-1,	-1,	53,	60,	-1,	9,	24,	-1,	-1,	-1,	-1,	-1,	-1,	10,	45,	-1,	33,	40,	-1,	-1,	-1|];
