benchmarks_LEQ/INST_64x64/40/inst64x64_40_83.txt
8
1
-1	10	61	-1	30	-1	-1	-1	56	26	47	-1	-1	1	-1	14	35	15	43	-1	-1	-1	12	-1	18	62	-1	-1	50	-1	-1	-1	-1	27	-1	-1	-1	-1	-1	-1	-1	29	-1	-1	-1	23	-1	59	46	-1	-1	-1	53	58	16	54	55	-1	-1	-1	9	44	28	-1
-1	-1	-1	15	-1	3	-1	58	54	36	5	-1	-1	49	53	-1	-1	-1	-1	-1	-1	46	-1	-1	-1	38	-1	-1	-1	-1	-1	34	-1	44	30	-1	-1	17	-1	-1	-1	18	-1	48	14	-1	13	-1	52	-1	-1	-1	-1	-1	1	57	-1	63	10	-1	23	-1	37	-1
-1	-1	22	49	55	-1	28	29	-1	2	-1	57	52	-1	16	34	20	-1	62	-1	-1	-1	-1	-1	61	21	-1	-1	-1	-1	44	-1	-1	-1	60	39	51	36	59	-1	30	-1	-1	-1	15	25	45	-1	33	32	6	-1	-1	43	-1	-1	-1	-1	-1	-1	58	-1	-1	46
38	-1	-1	-1	-1	41	45	-1	-1	-1	-1	-1	-1	21	30	-1	-1	-1	16	17	-1	-1	44	18	-1	-1	-1	-1	-1	-1	-1	-1	23	56	-1	-1	-1	-1	-1	-1	-1	-1	46	-1	-1	-1	-1	11	47	-1	62	13	35	-1	-1	4	-1	-1	-1	-1	14	-1	59	-1
-1	-1	-1	-1	23	-1	-1	-1	25	28	-1	-1	-1	31	64	-1	45	38	5	-1	-1	-1	-1	-1	-1	54	-1	-1	-1	-1	-1	-1	-1	15	-1	34	32	-1	52	10	-1	27	50	53	-1	-1	57	-1	-1	-1	-1	40	-1	2	-1	-1	-1	16	-1	-1	-1	35	-1	-1
21	36	-1	-1	-1	5	-1	-1	60	-1	9	-1	-1	12	-1	51	-1	-1	-1	-1	28	-1	34	-1	35	43	14	17	-1	-1	-1	-1	-1	-1	-1	-1	64	2	55	-1	40	-1	10	3	-1	-1	26	6	56	-1	-1	-1	23	22	44	-1	-1	-1	-1	-1	-1	38	48	-1
50	53	2	-1	44	-1	-1	35	-1	-1	-1	-1	-1	-1	-1	17	-1	41	36	-1	48	-1	59	55	-1	11	-1	15	23	46	27	-1	-1	22	28	-1	-1	-1	-1	14	-1	-1	49	-1	-1	-1	-1	12	20	25	21	51	-1	-1	-1	38	-1	-1	-1	-1	-1	-1	56	54
-1	-1	-1	-1	-1	-1	-1	-1	-1	46	-1	45	-1	43	8	23	54	-1	27	-1	-1	61	-1	-1	5	-1	-1	51	-1	-1	-1	-1	-1	53	-1	-1	-1	-1	41	-1	-1	-1	35	-1	-1	-1	-1	-1	-1	10	-1	59	-1	-1	30	49	-1	-1	6	21	-1	13	-1	62
61	-1	-1	1	-1	23	-1	18	-1	54	63	58	40	5	-1	-1	4	33	-1	-1	57	-1	-1	48	-1	34	-1	-1	-1	31	-1	30	-1	-1	-1	-1	10	-1	-1	36	50	-1	-1	22	-1	29	-1	-1	64	-1	9	-1	-1	-1	-1	-1	3	-1	-1	47	35	-1	27	17
-1	14	28	-1	-1	-1	-1	13	31	-1	45	24	-1	34	-1	-1	-1	-1	61	35	-1	60	-1	-1	-1	-1	-1	-1	10	-1	-1	64	-1	12	-1	-1	58	-1	3	-1	-1	51	18	38	-1	-1	-1	4	57	-1	8	63	20	-1	-1	26	-1	25	-1	-1	-1	-1	-1	37
-1	-1	-1	-1	6	59	50	-1	7	-1	37	-1	-1	41	-1	36	47	19	64	43	-1	-1	-1	-1	-1	-1	5	-1	33	-1	-1	-1	-1	-1	-1	-1	2	54	-1	-1	-1	45	-1	25	-1	56	61	8	-1	4	13	32	38	-1	28	-1	-1	-1	-1	-1	-1	-1	-1	-1
-1	-1	-1	60	-1	-1	-1	-1	-1	56	32	-1	51	15	33	-1	-1	13	9	-1	30	-1	-1	-1	27	-1	37	4	-1	20	-1	-1	-1	-1	-1	14	61	-1	-1	-1	36	-1	63	-1	-1	-1	-1	-1	41	6	-1	-1	-1	-1	3	22	-1	-1	-1	-1	-1	-1	-1	-1
-1	-1	-1	-1	-1	-1	-1	-1	39	55	-1	4	-1	35	-1	19	-1	-1	34	14	22	-1	-1	10	36	-1	-1	21	43	-1	-1	-1	27	51	6	59	-1	1	-1	20	54	24	31	-1	-1	-1	-1	33	-1	-1	-1	30	42	-1	2	58	-1	-1	53	-1	-1	46	-1	-1
-1	-1	-1	37	20	9	36	-1	27	23	-1	10	22	-1	-1	8	-1	-1	-1	44	62	-1	-1	-1	-1	52	1	-1	47	54	24	-1	35	4	-1	29	33	-1	19	-1	-1	49	43	-1	32	-1	53	13	-1	48	-1	11	5	-1	-1	15	-1	64	-1	30	63	-1	21	55
-1	-1	-1	-1	-1	-1	35	-1	-1	-1	1	-1	-1	-1	18	-1	-1	39	12	-1	-1	-1	15	63	-1	-1	-1	-1	-1	-1	-1	-1	-1	62	-1	-1	-1	-1	5	34	58	-1	-1	42	-1	-1	-1	-1	-1	-1	49	-1	43	-1	-1	53	-1	13	-1	23	50	59	-1	45
30	-1	8	44	-1	-1	-1	27	-1	60	-1	-1	-1	59	-1	13	-1	-1	56	40	-1	-1	21	-1	6	63	-1	-1	-1	38	-1	-1	-1	-1	-1	-1	-1	-1	-1	-1	10	35	-1	-1	-1	-1	-1	-1	18	33	-1	-1	1	-1	-1	62	-1	-1	61	51	4	-1	-1	-1
60	-1	-1	35	-1	51	-1	-1	8	3	-1	52	4	-1	-1	-1	-1	-1	48	-1	41	-1	-1	-1	-1	64	54	-1	12	27	-1	36	24	18	2	-1	57	-1	-1	-1	56	58	6	-1	-1	-1	-1	-1	-1	-1	-1	-1	-1	38	-1	1	-1	-1	28	-1	42	7	22	-1
8	-1	30	39	49	-1	-1	-1	59	11	14	36	-1	25	-1	-1	-1	-1	-1	-1	-1	-1	50	-1	-1	42	16	-1	-1	-1	-1	-1	53	-1	-1	44	-1	-1	33	-1	-1	20	-1	-1	48	38	-1	35	-1	-1	64	52	-1	-1	47	-1	-1	55	63	-1	-1	-1	-1	51
-1	-1	44	14	12	22	-1	47	-1	35	30	64	24	-1	-1	-1	-1	-1	38	-1	-1	-1	-1	43	15	61	-1	56	4	18	-1	-1	55	40	36	9	-1	-1	-1	5	-1	-1	-1	-1	-1	-1	-1	-1	-1	51	-1	7	46	27	-1	8	-1	49	-1	11	-1	-1	-1	-1
-1	-1	-1	58	24	-1	-1	-1	-1	49	-1	-1	19	-1	-1	-1	-1	-1	-1	4	59	-1	-1	-1	39	-1	-1	-1	32	-1	26	-1	-1	34	-1	-1	-1	-1	-1	-1	-1	-1	-1	43	-1	42	46	-1	-1	5	-1	-1	-1	-1	45	31	14	-1	23	37	-1	47	41	-1
23	21	45	7	-1	33	-1	25	22	-1	-1	47	-1	-1	-1	54	-1	-1	42	-1	-1	58	37	-1	-1	-1	29	60	-1	-1	-1	-1	-1	-1	-1	-1	35	59	-1	3	-1	52	-1	24	18	-1	-1	36	49	9	43	-1	34	6	-1	32	57	56	-1	-1	-1	-1	-1	-1
31	-1	-1	-1	36	-1	-1	-1	-1	-1	21	60	16	45	-1	-1	63	30	15	8	47	-1	27	-1	-1	-1	44	-1	-1	-1	-1	37	-1	39	-1	22	-1	46	-1	-1	-1	-1	51	-1	64	12	28	-1	-1	62	-1	57	-1	4	-1	61	-1	26	-1	3	13	-1	-1	25
-1	55	63	62	61	34	-1	28	-1	-1	-1	13	46	27	-1	-1	-1	-1	-1	-1	-1	-1	24	-1	-1	8	-1	5	53	11	-1	-1	1	-1	-1	51	20	-1	-1	-1	-1	-1	21	45	26	60	-1	-1	59	-1	39	-1	-1	-1	-1	16	-1	-1	-1	-1	-1	31	-1	-1
27	50	32	-1	46	-1	10	-1	57	51	44	26	2	-1	1	-1	-1	-1	-1	-1	21	-1	3	-1	62	48	-1	-1	19	-1	-1	25	-1	-1	-1	-1	-1	-1	-1	-1	-1	-1	15	17	29	-1	-1	39	-1	36	60	-1	-1	-1	42	13	-1	-1	-1	-1	-1	-1	43	-1
56	-1	18	12	-1	-1	-1	-1	-1	-1	-1	34	-1	-1	-1	7	-1	-1	-1	59	25	-1	-1	-1	-1	-1	-1	-1	11	-1	-1	-1	43	-1	-1	53	15	60	-1	24	38	-1	54	57	28	-1	-1	31	-1	39	-1	21	-1	48	-1	9	64	17	-1	55	-1	26	42	40
-1	19	-1	54	-1	-1	23	51	-1	42	11	-1	-1	55	39	-1	24	-1	-1	-1	40	44	-1	-1	-1	-1	-1	38	60	-1	-1	14	-1	-1	20	-1	25	-1	-1	-1	22	13	-1	-1	-1	-1	-1	-1	-1	-1	-1	-1	-1	-1	4	-1	63	7	-1	28	-1	56	30	21
7	3	13	-1	63	-1	-1	-1	-1	-1	6	-1	-1	2	51	-1	-1	-1	18	-1	-1	-1	-1	-1	-1	40	-1	-1	1	-1	-1	39	-1	-1	-1	58	45	-1	22	-1	8	42	-1	-1	53	-1	-1	-1	-1	26	-1	64	27	-1	-1	-1	-1	-1	-1	5	41	-1	-1	-1
-1	-1	-1	45	22	58	30	21	-1	8	-1	41	-1	-1	-1	-1	-1	54	51	39	35	37	-1	-1	59	-1	-1	-1	-1	-1	6	-1	-1	-1	33	-1	14	26	-1	48	44	1	62	-1	-1	-1	-1	49	-1	-1	-1	42	-1	-1	15	2	-1	-1	11	-1	-1	10	-1	-1
-1	60	-1	-1	-1	-1	16	-1	-1	38	-1	3	32	30	-1	1	-1	-1	-1	-1	-1	-1	8	26	-1	47	57	-1	54	-1	-1	-1	-1	-1	51	-1	-1	40	-1	-1	20	6	-1	-1	-1	14	-1	-1	-1	17	28	-1	-1	-1	13	-1	-1	-1	-1	43	-1	-1	50	-1
-1	27	-1	41	59	-1	31	-1	9	58	57	-1	-1	-1	25	-1	60	43	-1	-1	-1	1	48	38	-1	-1	53	37	-1	-1	-1	33	-1	-1	-1	-1	-1	-1	-1	44	-1	-1	56	21	-1	32	30	15	3	22	-1	-1	12	-1	-1	-1	-1	47	-1	-1	-1	-1	16	29
-1	25	-1	-1	26	46	8	39	36	21	50	-1	60	19	-1	-1	-1	-1	22	-1	2	12	29	58	-1	-1	-1	20	-1	-1	-1	-1	-1	-1	-1	56	54	31	-1	-1	-1	-1	45	34	-1	-1	17	-1	-1	-1	-1	-1	52	-1	-1	43	-1	-1	9	1	37	48	33	-1
-1	-1	-1	42	-1	-1	-1	-1	-1	-1	56	-1	14	-1	-1	-1	-1	-1	50	-1	-1	62	7	-1	-1	-1	-1	-1	-1	-1	8	-1	9	38	-1	-1	-1	55	57	47	-1	2	48	-1	-1	-1	-1	-1	35	-1	45	37	10	59	53	-1	-1	39	-1	-1	-1	15	-1	-1
-1	-1	11	-1	43	-1	-1	-1	-1	16	-1	-1	-1	-1	27	39	-1	37	-1	-1	19	-1	5	15	40	-1	-1	-1	-1	63	38	-1	17	-1	-1	-1	-1	35	-1	-1	47	32	-1	-1	-1	54	-1	2	53	-1	57	-1	-1	-1	55	-1	-1	-1	30	20	-1	-1	-1	1
-1	49	56	-1	14	62	-1	-1	42	17	53	-1	-1	64	-1	-1	-1	-1	-1	-1	-1	43	-1	31	-1	24	32	-1	-1	-1	-1	27	50	-1	52	-1	22	4	-1	51	-1	30	25	-1	-1	13	-1	-1	34	58	-1	-1	-1	10	-1	-1	19	54	57	-1	16	9	45	7
41	34	-1	32	37	-1	-1	26	-1	-1	-1	-1	-1	-1	-1	-1	-1	-1	1	-1	-1	-1	53	-1	-1	17	19	28	-1	-1	21	-1	46	-1	-1	-1	42	10	-1	-1	39	-1	-1	-1	63	45	-1	-1	-1	16	-1	2	11	-1	-1	-1	51	-1	-1	48	31	-1	40	-1
44	17	36	52	2	6	61	-1	47	22	-1	-1	-1	46	-1	-1	-1	-1	-1	-1	-1	64	-1	-1	-1	-1	-1	33	39	8	-1	9	-1	60	25	-1	-1	58	56	-1	24	48	-1	55	-1	-1	-1	-1	63	45	23	-1	13	49	-1	35	32	18	-1	-1	-1	11	-1	-1
63	31	3	-1	-1	-1	-1	-1	-1	18	12	-1	-1	57	40	-1	28	35	-1	-1	24	51	52	-1	-1	-1	6	-1	25	59	-1	-1	62	11	-1	-1	-1	-1	34	-1	27	-1	53	-1	60	-1	-1	-1	54	21	-1	20	-1	7	-1	-1	39	46	-1	-1	-1	-1	-1	-1
-1	16	-1	-1	13	-1	-1	-1	6	-1	-1	32	41	33	11	-1	-1	-1	-1	-1	-1	-1	56	-1	-1	-1	-1	46	-1	-1	51	-1	36	24	61	-1	-1	-1	-1	9	18	38	-1	8	-1	-1	1	-1	-1	-1	-1	-1	26	-1	52	-1	17	-1	-1	-1	29	-1	35	-1
-1	40	-1	-1	51	-1	-1	-1	-1	-1	55	25	-1	-1	-1	-1	-1	62	-1	30	-1	13	-1	-1	-1	35	-1	45	-1	-1	16	41	-1	-1	3	48	-1	-1	-1	32	33	57	64	-1	-1	5	-1	-1	-1	18	1	50	9	-1	6	17	-1	-1	-1	-1	-1	23	-1	61
-1	9	35	-1	-1	-1	-1	45	-1	-1	-1	1	34	60	24	56	-1	-1	26	-1	-1	32	-1	-1	23	-1	-1	-1	29	53	-1	-1	-1	-1	59	55	19	44	-1	-1	51	-1	36	16	17	-1	-1	-1	15	43	40	-1	-1	-1	-1	-1	-1	37	-1	-1	-1	21	10	-1
-1	41	-1	48	-1	-1	-1	64	-1	14	-1	38	61	-1	7	4	-1	-1	-1	21	-1	55	47	-1	-1	-1	43	42	2	39	-1	60	-1	-1	49	26	27	-1	-1	-1	-1	56	-1	-1	58	-1	-1	-1	-1	23	54	34	15	30	-1	-1	35	44	-1	17	25	29	-1	22
-1	-1	-1	26	56	39	-1	46	18	37	34	-1	-1	47	35	-1	52	-1	25	5	-1	2	-1	13	54	-1	-1	-1	-1	-1	-1	-1	15	-1	55	1	-1	-1	-1	19	64	-1	-1	-1	-1	11	59	-1	21	-1	-1	-1	-1	-1	31	-1	-1	-1	-1	9	-1	-1	-1	-1
-1	-1	7	-1	18	21	-1	-1	-1	-1	-1	5	-1	11	-1	-1	-1	-1	49	61	33	-1	-1	-1	44	-1	30	55	57	15	-1	-1	-1	35	-1	-1	-1	-1	48	42	63	14	16	-1	-1	-1	9	-1	26	13	-1	27	-1	51	-1	-1	-1	-1	40	-1	-1	-1	-1	-1
-1	-1	-1	30	-1	-1	-1	17	-1	-1	8	-1	-1	-1	-1	-1	-1	-1	-1	27	-1	34	38	23	-1	25	31	50	-1	-1	-1	-1	20	-1	-1	41	7	18	-1	-1	29	28	2	-1	61	-1	52	53	39	11	-1	46	-1	-1	-1	59	-1	-1	-1	13	-1	58	-1	56
-1	-1	-1	-1	-1	-1	-1	-1	-1	-1	-1	40	-1	39	-1	-1	-1	-1	58	-1	-1	-1	-1	-1	-1	-1	-1	-1	21	47	-1	-1	-1	5	-1	36	62	-1	51	43	-1	-1	-1	30	35	20	48	3	-1	-1	-1	1	-1	16	-1	29	-1	11	-1	24	55	64	31	18
53	-1	-1	29	-1	-1	-1	-1	-1	12	-1	-1	-1	-1	-1	63	57	-1	-1	-1	-1	-1	-1	17	-1	16	51	36	-1	-1	-1	-1	-1	45	-1	-1	44	-1	-1	2	-1	-1	-1	-1	13	37	24	55	62	50	-1	-1	49	-1	-1	-1	-1	-1	-1	-1	-1	20	-1	32
36	-1	-1	-1	-1	4	-1	-1	-1	-1	17	-1	13	16	-1	-1	-1	9	-1	64	-1	39	-1	40	-1	23	-1	-1	-1	-1	-1	-1	-1	-1	-1	-1	21	56	-1	-1	26	5	-1	-1	49	46	27	47	-1	12	-1	55	-1	-1	-1	-1	-1	15	-1	54	59	-1	61	-1
-1	12	27	55	-1	16	-1	-1	-1	-1	59	-1	23	42	-1	-1	44	-1	53	-1	-1	54	32	-1	56	-1	18	40	-1	10	-1	-1	37	-1	-1	-1	-1	-1	47	-1	-1	25	8	62	39	1	-1	-1	48	35	36	-1	-1	-1	-1	20	-1	-1	-1	-1	52	57	63	-1
-1	-1	-1	51	-1	55	-1	23	63	-1	-1	48	-1	-1	-1	28	32	-1	-1	-1	29	-1	-1	-1	25	5	17	24	14	-1	-1	-1	-1	-1	-1	-1	-1	-1	46	-1	-1	22	-1	-1	19	-1	44	-1	6	15	-1	60	-1	53	-1	-1	11	20	2	-1	47	-1	-1	-1
-1	-1	-1	-1	58	26	21	-1	-1	-1	24	7	57	-1	-1	5	-1	-1	-1	16	38	30	-1	-1	-1	-1	-1	-1	-1	-1	37	-1	-1	-1	-1	-1	-1	61	-1	50	-1	-1	20	49	25	6	-1	63	-1	-1	32	56	19	36	-1	51	42	-1	35	-1	-1	-1	55	-1
-1	-1	-1	19	52	30	-1	-1	10	-1	-1	11	38	51	55	42	64	-1	54	-1	-1	-1	-1	62	-1	-1	27	-1	-1	16	-1	63	-1	-1	43	7	-1	57	26	33	-1	-1	-1	-1	4	-1	-1	-1	12	2	37	-1	41	9	-1	-1	-1	-1	44	-1	21	32	-1	3
46	62	-1	59	11	-1	-1	-1	-1	1	-1	35	12	32	-1	47	-1	-1	-1	2	-1	27	41	7	-1	-1	-1	-1	45	58	29	49	-1	-1	-1	-1	-1	-1	-1	54	16	21	-1	-1	10	30	-1	50	-1	-1	-1	-1	4	-1	-1	3	-1	48	-1	-1	-1	22	39	-1
-1	-1	-1	-1	-1	-1	12	-1	-1	-1	-1	-1	30	-1	-1	-1	-1	34	-1	48	5	26	-1	-1	-1	1	55	43	-1	-1	-1	31	-1	-1	-1	3	38	-1	-1	49	-1	-1	57	-1	42	15	-1	-1	-1	-1	22	-1	59	-1	33	-1	-1	51	-1	-1	53	-1	-1	-1
-1	-1	5	43	-1	-1	-1	-1	-1	-1	-1	-1	-1	14	26	-1	-1	58	-1	-1	-1	-1	20	-1	-1	-1	-1	39	18	-1	34	-1	51	-1	-1	45	-1	22	9	27	59	-1	-1	28	-1	-1	-1	-1	-1	-1	30	16	-1	11	62	10	-1	8	-1	-1	-1	-1	-1	-1
-1	15	-1	16	-1	61	-1	56	58	-1	-1	19	-1	-1	2	-1	-1	-1	24	12	10	-1	-1	-1	57	-1	50	-1	-1	-1	-1	32	40	-1	48	-1	-1	-1	20	-1	55	-1	27	-1	-1	-1	-1	-1	23	-1	25	49	54	44	46	-1	-1	-1	-1	45	43	30	5	-1
57	20	4	-1	-1	-1	42	-1	15	-1	-1	-1	-1	17	-1	59	-1	-1	-1	46	-1	33	49	-1	11	-1	-1	-1	38	-1	-1	-1	-1	-1	47	-1	-1	-1	44	-1	37	-1	-1	-1	-1	-1	29	-1	14	-1	35	-1	21	63	-1	18	-1	-1	-1	19	6	28	-1	-1
-1	-1	-1	61	-1	-1	37	7	-1	10	-1	63	-1	8	-1	49	-1	26	-1	32	-1	-1	-1	50	-1	-1	-1	58	-1	-1	54	-1	18	-1	46	15	23	-1	16	-1	-1	-1	38	6	33	39	-1	-1	-1	-1	52	-1	44	-1	-1	56	29	9	59	-1	27	-1	11	-1
62	-1	-1	-1	-1	-1	-1	-1	-1	34	-1	-1	1	-1	-1	33	-1	22	45	63	-1	-1	36	-1	-1	-1	46	-1	5	57	-1	-1	-1	43	-1	-1	49	51	14	-1	-1	10	-1	-1	-1	-1	8	-1	4	40	-1	-1	-1	21	20	-1	15	61	-1	58	17	-1	47	-1
-1	-1	-1	-1	-1	-1	-1	12	-1	-1	4	-1	56	-1	-1	-1	-1	-1	-1	58	-1	-1	-1	-1	43	-1	47	-1	35	6	-1	-1	11	57	-1	-1	-1	-1	36	-1	-1	3	13	-1	-1	-1	50	-1	-1	-1	-1	-1	17	-1	49	34	54	24	-1	16	-1	-1	64	-1
9	-1	-1	-1	47	-1	-1	-1	-1	-1	-1	-1	55	-1	-1	57	46	28	-1	24	-1	-1	61	6	-1	31	64	3	22	36	-1	-1	45	8	-1	-1	-1	42	-1	-1	-1	16	-1	-1	-1	19	58	-1	-1	-1	10	-1	-1	-1	37	-1	-1	-1	-1	-1	7	-1	2	-1
16	-1	-1	-1	53	45	-1	8	-1	-1	-1	-1	-1	20	29	31	-1	-1	-1	-1	-1	-1	-1	-1	-1	-1	-1	-1	-1	-1	14	-1	44	50	-1	-1	-1	27	-1	-1	49	-1	-1	-1	-1	2	15	-1	-1	47	46	-1	-1	-1	-1	-1	56	32	-1	6	-1	-1	-1	48
-1	-1	-1	25	-1	64	-1	14	52	-1	-1	51	-1	40	-1	16	-1	47	-1	62	-1	5	-1	-1	34	39	-1	-1	-1	-1	-1	-1	54	29	-1	-1	31	-1	17	41	-1	-1	28	32	-1	9	-1	-1	7	-1	-1	6	-1	-1	-1	55	-1	-1	-1	-1	60	19	-1	44
-1	-1	-1	-1	-1	32	-1	55	-1	50	2	-1	-1	22	43	-1	21	-1	-1	7	16	-1	17	41	-1	-1	-1	62	-1	-1	-1	-1	33	-1	-1	47	-1	-1	30	-1	57	36	-1	-1	34	-1	-1	-1	38	-1	-1	-1	-1	19	-1	-1	-1	-1	3	-1	-1	8	18	-1
-1	58	48	-1	-1	36	5	-1	-1	-1	-1	28	-1	-1	-1	11	-1	18	-1	-1	27	29	-1	49	-1	-1	13	16	8	-1	61	20	-1	-1	-1	64	56	32	63	25	-1	62	-1	-1	37	-1	-1	-1	-1	24	14	-1	-1	15	-1	-1	-1	45	-1	-1	-1	-1	-1	-1
64 
10 18 56 58
47 12 39 34
26 47 19 41
50 26 49 24
18 61 61 52
44 21 33 19
7 55 55 47
51 2 1 36
64 49 23 7
33 8 62 36
9 9 39 44
40 18 12 44
61 49 53 11
3 22 21 30
37 8 16 38
24 57 56 64
48 54 51 34
34 4 55 37
45 24 25 30
5 57 27 18
36 48 55 16
16 33 33 27
37 35 62 57
61 45 48 32
43 56 6 57
59 64 4 54
26 24 62 28
61 53 50 1
13 32 43 13
57 2 62 30
16 34 8 40
58 28 10 24
17 20 19 27
17 48 48 29
25 31 44 19
27 62 25 34
6 50 59 9
43 61 21 39
58 64 53 19
50 29 28 11
48 41 43 10
64 59 52 34
57 62 18 8
33 61 63 26
6 32 51 21
11 4 29 61
13 54 23 34
23 1 15 13
44 61 1 64
21 55 33 4
59 62 36 55
50 41 59 2
51 26 45 32
27 54 58 52
57 32 54 49
52 61 18 50
28 61 45 6
40 23 61 39
38 50 14 19
15 43 5 23
48 36 51 44
2 3 20 40
53 8 34 60
46 33 31 46
